(declare-datatypes () ((RealFruits apple orange mixed)))
(declare-const realApple RealFruits)
(declare-const realOrange RealFruits)
(declare-const realMixed RealFruits)
(assert (or (= realApple orange) (= realApple mixed)))
(assert (not (= realMixed mixed)))
(assert (not (= realApple apple)))
(assert (not (= realOrange orange)))
(assert (distinct realApple realOrange realMixed))
(check-sat)
(get-model)
(assert (not (= realApple mixed)))
(assert (not (= realOrange apple)))
(assert (not (= realMixed orange)))
(check-sat)
(get-model)
